p cnf 14 64
8 -12 14 0
-1 -4 13 0
-6 -9 -14 0
-2 3 -6 0
1 -3 13 0
-3 -6 11 0
4 9 -11 0
7 -8 12 0
3 7 9 0
4 11 -12 0
3 5 8 0
-6 12 13 0
1 9 12 0
-10 12 13 0
-2 -5 -9 0
-7 9 -10 0
-5 -8 -12 0
-5 10 12 0
5 -9 -11 0
-9 10 -13 0
-1 2 -3 0
1 -2 -6 0
-4 10 11 0
8 -13 -14 0
5 12 -14 0
8 10 -11 0
-9 -11 -12 0
-2 6 -12 0
-5 6 13 0
3 5 10 0
-1 3 -11 0
-5 -7 13 0
-8 12 14 0
-6 -10 12 0
2 8 -14 0
-1 2 5 0
2 -5 -9 0
6 7 8 0
1 -5 13 0
-1 -2 13 0
5 7 -10 0
7 8 -11 0
-2 -6 12 0
6 -8 -10 0
-5 12 14 0
4 6 -8 0
-6 -8 10 0
-2 6 -10 0
1 4 -7 0
7 9 -10 0
2 -4 -5 0
-2 -8 -10 0
-1 -7 9 0
-1 7 -12 0
2 4 6 0
1 -5 -13 0
-2 6 10 0
5 -6 -14 0
6 9 -10 0
4 8 11 0
1 2 -11 0
6 -8 13 0
2 3 14 0
-2 -3 4 0
